============================[ Problem Statistics ]=============================|                                                                             ||  Number of variables:          4242                                         ||  Number of clauses:            9797                                         ||  Parse time:                   0.20 s                                       ||                                                                             |============================[ Search Statistics ]==============================| Conflicts |          ORIGINAL         |          LEARNT          | Progress ||           |    Vars  Clauses Literals |    Limit  Clauses Lit/Cl |          |===============================================================================|       100 |    1591     6002   296583 |     2200      100     53 | 62.501 % |===============================================================================restarts              : 2conflicts             : 117            (345 /sec)decisions             : 287            (0.00 % random) (847 /sec)propagations          : 9885           (29159 /sec)conflict literals     : 6777           (95.74 % deleted)CPU time              : 0.339 sSATISFIABLE